c Formula Family: FAST KBKF
c Values: {'t': 10}
p cnf 41 42
e 11 12 13 0
a 1 0
e 14 15 0
a 2 0
e 16 17 0
a 3 0
e 18 19 0
a 4 0
e 20 21 0
a 5 0
e 22 23 0
a 6 0
e 24 25 0
a 7 0
e 26 27 0
a 8 0
e 28 29 0
a 9 0
e 30 31 0
a 10 0
e 32 33 34 35 36 37 38 39 40 41 0
-1 -2 -3 -4 -5 -6 -7 -8 -9 -10 41 0
-1 -2 -3 -4 -5 -6 -7 -8 -9 -10 40 0
-1 -2 -3 -4 -5 -6 -7 -8 -9 -10 39 0
-1 -2 -3 -4 -5 -6 -7 -8 -9 -10 38 0
-1 -2 -3 -4 -5 -6 -7 -8 -9 -10 37 0
-1 -2 -3 -4 -5 -6 -7 -8 -9 -10 36 0
-1 -2 -3 -4 -5 -6 -7 -8 -9 -10 35 0
-1 -2 -3 -4 -5 -6 -7 -8 -9 -10 34 0
-1 -2 -3 -4 -5 -6 -7 -8 -9 -10 33 0
-1 -2 -3 -4 -5 -6 -7 -8 -9 -10 32 0
1 2 3 4 5 6 7 8 9 10 41 0
1 2 3 4 5 6 7 8 9 10 40 0
1 2 3 4 5 6 7 8 9 10 39 0
1 2 3 4 5 6 7 8 9 10 38 0
1 2 3 4 5 6 7 8 9 10 37 0
1 2 3 4 5 6 7 8 9 10 36 0
1 2 3 4 5 6 7 8 9 10 35 0
1 2 3 4 5 6 7 8 9 10 34 0
1 2 3 4 5 6 7 8 9 10 33 0
1 2 3 4 5 6 7 8 9 10 32 0
31 10 -32 -33 -34 -35 -36 -37 -38 -39 -40 -41 0
30 10 -32 -33 -34 -35 -36 -37 -38 -39 -40 -41 0
29 9 -30 -31 0
28 9 -30 -31 0
27 8 -28 -29 0
26 8 -28 -29 0
25 7 -26 -27 0
24 7 -26 -27 0
23 6 -24 -25 0
22 6 -24 -25 0
21 5 -22 -23 0
20 5 -22 -23 0
19 4 -20 -21 0
18 4 -20 -21 0
17 3 -18 -19 0
16 3 -18 -19 0
15 2 -16 -17 0
14 2 -16 -17 0
13 1 -14 -15 0
12 1 -14 -15 0
11 -12 -13 0
-11 0
